10
40
1993
1602
1565
1446
1446
1014
796
207
201
176
72	472
110	510
191	591
206	606
252	652
270	670
288	688
302	702
424	824
563	963
604	1004
635	1035
660	1060
722	1122
761	1161
852	1252
867	1267
915	1315
978	1378
982	1382
28	428
112	512
149	549
175	575
293	693
308	708
361	761
368	768
495	895
520	920
565	965
592	992
683	1083
688	1088
701	1101
712	1112
791	1191
874	1274
906	1306
924	1324
